#p test gfinput sto-2g units=au int=uncontractaobasis
iop(3/33=2)
output=faf

test

0  1
h
h  1  1.4

001.faf

