#p test gfinput 6-31g units=au geom=modela
iop(3/33=2)
output=faf

test

0  1
o h h

004.faf

