#p test gfinput 6-31g* units=au geom=modela
int(grid=superfine,preComputeXCGridPoints)
pop=full output=faf

test

0  1
o h h

005.faf

