#p test gfinput 6-31g(d) pop=full
int(grid=superfine,preComputeXCGridPoints)
iop(3/33=2)
output=faf

test

0  1
ne

006a.faf

