%chk=007
#p test gfinput blyp sto-3g pop=full
int(grid=sg1,preComputeXCGridPoints)
iop(3/33=2)
output=faf

test

0  1
ne

007.faf

