%chk=007
#p test gfinput sto-3g pop=full
iop(3/33=2)
output=faf

test

0  1
ne

007.faf

