%chk=008
#p test gfinput sto-3g pop=full output=faf

test

0  1
f
f  1  1.3

008.faf

