%oldchk=008
#p test gfinput sto-3g pop=full output=faf

test

1  2
f
f  1  1.3

008a.faf

