%oldchk=009
#p test gfinput 6-31g(d) pop=full output=faf

test

1  2
f
f  1  1.3

009a.faf

